conditionSynthesis/results/repairExamples_all_1h_nogrammar/boundaries/crafted/max_abs_plus_div_v4_realizable.boundaries.out
(
(define-fun Condition_0 ((vg_0 Int) (mainv%loop.bound_0 Int) (mainv%_2_0 Int) (mainv%.0.i_1 Int)) Bool (or (not (>= mainv%_2_0 (- 8))) (>= mainv%_2_0 9) (not (>= mainv%.0.i_1 9)) (not (>= mainv%loop.bound_0 5))))
)
